NAME: moje_instance_EUC
TYPE: TSP
DIMENSION: 5
EDGE_WEIGHT_TYPE: EUC_2D
NODE_COORD_SECTION
 1 49.906268 17.983282
 2 49.470303 17.784836
 3 49.892953 17.437557
 4 49.674062 18.032893
 5 49.868977 18.239608
EOF